NAME : A-n62-k8.783176.tour
COMMENT : Length = 783176
COMMENT : Found by LKH [Keld Helsgaun] Sun Dec 17 18:43:39 2017
TYPE : TOUR
DIMENSION : 69
TOUR_SECTION
1
16
57
49
13
20
68
53
37
17
38
23
45
3
67
39
47
46
48
25
40
63
15
6
61
32
26
12
50
36
5
22
42
24
28
65
54
14
19
31
2
10
55
43
4
69
52
11
9
44
30
66
8
21
62
41
7
33
58
64
29
35
60
56
27
34
59
18
51
-1
EOF
